%BLOCK LATTICE_CART
      -0.000000000000000       2.850252134776680       2.850252134776680
       2.850252134776680       0.000000000000000       2.850252134776680
       2.850252134776680       2.850252134776680      -0.000000000000001
%ENDBLOCK LATTICE_CART

%BLOCK POSITIONS_FRAC
 Ga   0.0000000000000000    0.0000000000000000    0.0000000000000000
 As   0.2500000000000000    0.2500000000000000    0.2500000000000000
%ENDBLOCK POSITIONS_FRAC

%BLOCK SPECTRAL_KPOINT_LIST
   0.4166666666666667    0.4166666666666667    0.4166666666666667       0.009259259259259
   0.4166666666666667    0.4166666666666667    0.2499999999999999       0.027777777777778
   0.4166666666666667    0.4166666666666667    0.0833333333333333       0.027777777777778
   0.4166666666666667    0.4166666666666667   -0.0833333333333334       0.027777777777778
   0.4166666666666667    0.4166666666666667   -0.2500000000000000       0.027777777777778
   0.4166666666666667    0.4166666666666667   -0.4166666666666667       0.027777777777778
   0.4166666666666667    0.2499999999999999    0.2499999999999999       0.027777777777778
   0.4166666666666667    0.2499999999999999    0.0833333333333333       0.055555555555556
   0.4166666666666667    0.2499999999999999   -0.0833333333333334       0.055555555555556
   0.4166666666666667    0.2499999999999999   -0.2500000000000000       0.055555555555556
   0.4166666666666667    0.2499999999999999   -0.4166666666666667       0.055555555555556
   0.4166666666666667    0.0833333333333333    0.0833333333333333       0.027777777777778
   0.4166666666666667    0.0833333333333333   -0.0833333333333334       0.055555555555556
   0.4166666666666667    0.0833333333333333   -0.2500000000000000       0.055555555555556
   0.4166666666666667    0.0833333333333333   -0.4166666666666667       0.055555555555556
   0.4166666666666667   -0.0833333333333334   -0.0833333333333334       0.027777777777778
   0.4166666666666667   -0.0833333333333334   -0.2500000000000000       0.055555555555556
   0.4166666666666667   -0.2500000000000000   -0.2500000000000000       0.027777777777778
   0.2499999999999999    0.2499999999999999    0.2499999999999999       0.009259259259259
   0.2499999999999999    0.2499999999999999    0.0833333333333333       0.027777777777778
   0.2499999999999999    0.2499999999999999   -0.0833333333333334       0.027777777777778
   0.2499999999999999    0.2499999999999999   -0.2500000000000000       0.027777777777778
   0.2499999999999999    0.0833333333333333    0.0833333333333333       0.027777777777778
   0.2499999999999999    0.0833333333333333   -0.0833333333333334       0.055555555555556
   0.2499999999999999    0.0833333333333333   -0.2500000000000000       0.055555555555556
   0.2499999999999999   -0.0833333333333334   -0.0833333333333334       0.027777777777778
   0.0833333333333333    0.0833333333333333    0.0833333333333333       0.009259259259259
   0.0833333333333333    0.0833333333333333   -0.0833333333333334       0.027777777777778
%ENDBLOCK SPECTRAL_KPOINT_LIST

%BLOCK KPOINTS_LIST
   0.3750000000000000    0.3750000000000000    0.3750000000000000       0.031250000000000
   0.3750000000000000    0.3750000000000000    0.1250000000000000       0.093750000000000
   0.3750000000000000    0.3750000000000000   -0.1250000000000000       0.093750000000000
   0.3750000000000000    0.3750000000000000   -0.3750000000000000       0.093750000000000
   0.3750000000000000    0.1250000000000000    0.1250000000000000       0.093750000000000
   0.3750000000000000    0.1250000000000000   -0.1250000000000000       0.187500000000000
   0.3750000000000000    0.1250000000000000   -0.3750000000000000       0.187500000000000
   0.3750000000000000   -0.1250000000000000   -0.1250000000000000       0.093750000000000
   0.1250000000000000    0.1250000000000000    0.1250000000000000       0.031250000000000
   0.1250000000000000    0.1250000000000000   -0.1250000000000000       0.093750000000000
%ENDBLOCK KPOINTS_LIST

%BLOCK SYMMETRY_OPS
       1.000000000000000       0.000000000000000      -0.000000000000000
       0.000000000000000       1.000000000000000       0.000000000000000
      -0.000000000000000       0.000000000000000       1.000000000000000
       0.000000000000000        0.000000000000000        0.000000000000000
      -1.000000000000000       0.000000000000000       0.000000000000000
      -0.000000000000000      -1.000000000000000       0.000000000000000
       0.000000000000000       0.000000000000000       1.000000000000000
       0.000000000000000        0.000000000000000        0.000000000000000
      -1.000000000000000       0.000000000000000       0.000000000000000
      -0.000000000000000       1.000000000000000      -0.000000000000000
       0.000000000000000       0.000000000000000      -1.000000000000000
       0.000000000000000        0.000000000000000        0.000000000000000
       1.000000000000000       0.000000000000000      -0.000000000000000
       0.000000000000000      -1.000000000000000      -0.000000000000000
       0.000000000000000       0.000000000000000      -1.000000000000000
       0.000000000000000        0.000000000000000        0.000000000000000
       0.000000000000000       1.000000000000000      -0.000000000000000
       0.000000000000000       0.000000000000000       1.000000000000000
       1.000000000000000       0.000000000000000      -0.000000000000000
       0.000000000000000        0.000000000000000        0.000000000000000
       0.000000000000000      -1.000000000000000       0.000000000000000
       0.000000000000000      -0.000000000000000      -1.000000000000000
       1.000000000000000       0.000000000000000      -0.000000000000000
       0.000000000000000        0.000000000000000        0.000000000000000
      -0.000000000000000      -1.000000000000000       0.000000000000000
      -0.000000000000000      -0.000000000000000       1.000000000000000
      -1.000000000000000       0.000000000000000       0.000000000000000
       0.000000000000000        0.000000000000000        0.000000000000000
      -0.000000000000000       1.000000000000000      -0.000000000000000
      -0.000000000000000       0.000000000000000      -1.000000000000000
      -1.000000000000000       0.000000000000000       0.000000000000000
       0.000000000000000        0.000000000000000        0.000000000000000
      -0.000000000000000       0.000000000000000       1.000000000000000
       1.000000000000000       0.000000000000000      -0.000000000000000
      -0.000000000000000       1.000000000000000      -0.000000000000000
       0.000000000000000        0.000000000000000        0.000000000000000
       0.000000000000000       0.000000000000000      -1.000000000000000
      -1.000000000000000       0.000000000000000       0.000000000000000
       0.000000000000000       1.000000000000000      -0.000000000000000
       0.000000000000000        0.000000000000000        0.000000000000000
       0.000000000000000      -0.000000000000000      -1.000000000000000
       1.000000000000000      -0.000000000000000      -0.000000000000000
       0.000000000000000      -1.000000000000000       0.000000000000000
       0.000000000000000        0.000000000000000        0.000000000000000
       0.000000000000000      -0.000000000000000       1.000000000000000
      -1.000000000000000      -0.000000000000000       0.000000000000000
       0.000000000000000      -1.000000000000000       0.000000000000000
       0.000000000000000        0.000000000000000        0.000000000000000
      -0.000000000000000       1.000000000000000      -0.000000000000000
       1.000000000000000       0.000000000000000       0.000000000000000
      -0.000000000000000       0.000000000000000       1.000000000000000
       0.000000000000000        0.000000000000000        0.000000000000000
       0.000000000000000      -1.000000000000000       0.000000000000000
      -1.000000000000000      -0.000000000000000       0.000000000000000
       0.000000000000000       0.000000000000000       1.000000000000000
       0.000000000000000        0.000000000000000        0.000000000000000
       0.000000000000000      -1.000000000000000       0.000000000000000
       1.000000000000000      -0.000000000000000      -0.000000000000000
       0.000000000000000       0.000000000000000      -1.000000000000000
       0.000000000000000        0.000000000000000        0.000000000000000
       0.000000000000000       1.000000000000000      -0.000000000000000
      -1.000000000000000       0.000000000000000      -0.000000000000000
       0.000000000000000       0.000000000000000      -1.000000000000000
       0.000000000000000        0.000000000000000        0.000000000000000
       1.000000000000000       0.000000000000000      -0.000000000000000
       0.000000000000000       0.000000000000000       1.000000000000000
      -0.000000000000000       1.000000000000000      -0.000000000000000
       0.000000000000000        0.000000000000000        0.000000000000000
      -1.000000000000000       0.000000000000000       0.000000000000000
      -0.000000000000000       0.000000000000000      -1.000000000000000
       0.000000000000000       1.000000000000000      -0.000000000000000
       0.000000000000000        0.000000000000000        0.000000000000000
      -1.000000000000000      -0.000000000000000       0.000000000000000
      -0.000000000000000      -0.000000000000000       1.000000000000000
       0.000000000000000      -1.000000000000000       0.000000000000000
       0.000000000000000        0.000000000000000        0.000000000000000
       1.000000000000000      -0.000000000000000      -0.000000000000000
       0.000000000000000      -0.000000000000000      -1.000000000000000
       0.000000000000000      -1.000000000000000       0.000000000000000
       0.000000000000000        0.000000000000000        0.000000000000000
       0.000000000000000       0.000000000000000       1.000000000000000
       0.000000000000000       1.000000000000000      -0.000000000000000
       1.000000000000000       0.000000000000000      -0.000000000000000
       0.000000000000000        0.000000000000000        0.000000000000000
       0.000000000000000       0.000000000000000      -1.000000000000000
       0.000000000000000      -1.000000000000000       0.000000000000000
       1.000000000000000       0.000000000000000      -0.000000000000000
       0.000000000000000        0.000000000000000        0.000000000000000
      -0.000000000000000       0.000000000000000      -1.000000000000000
      -0.000000000000000       1.000000000000000      -0.000000000000000
      -1.000000000000000       0.000000000000000       0.000000000000000
       0.000000000000000        0.000000000000000        0.000000000000000
      -0.000000000000000       0.000000000000000       1.000000000000000
      -0.000000000000000      -1.000000000000000       0.000000000000000
      -1.000000000000000       0.000000000000000       0.000000000000000
       0.000000000000000        0.000000000000000        0.000000000000000
%ENDBLOCK SYMMETRY_OPS

%BLOCK CELL_CONSTRAINTS
       1       1       1
       0       0       0
%ENDBLOCK CELL_CONSTRAINTS

FIX_COM : false
%BLOCK IONIC_CONSTRAINTS
%ENDBLOCK IONIC_CONSTRAINTS

%BLOCK EXTERNAL_EFIELD
    0.0000000000     0.0000000000     0.0000000000
%ENDBLOCK EXTERNAL_EFIELD

%BLOCK SPECIES_MASS
      Ga     69.7350006104
      As     74.9219970703
%ENDBLOCK SPECIES_MASS

%BLOCK SPECIES_POT
      Ga  Ga_00.recpot
      As  As_00.recpot
%ENDBLOCK SPECIES_POT

%BLOCK SPECIES_LCAO_STATES
      Ga         4
      As         3
%ENDBLOCK SPECIES_LCAO_STATES
